5 5
6 1 5 3 1 5 4 1 2 12 1 4 20 4 3 20 1 6 2 14 5 17 4 2 3 5 14 3 20 1 16
6 5 2 17 3 6 4 2 1 3 5 10 5 2 7 5 18 1 11 3 5 4 11 4 2 10 1 11 4 12 3 12 1 5 2 1 3 6 4 5 16 1 3 4 19 3 15
4 1 2 18 1 4 20 4 5 17 2 11 3 10 1 3 3 2 19 3 18 4 17
6 1 2 19 1 4 5 2 2 11 5 8 4 1 16 2 20 5 14 4 12 5 4 9 3 8 2 16 1 7 5 8 5 4 4 3 16 1 7 2 20 5 16
5 2 1 3 5 15 3 5 14 2 18 4 20 5 3 8 4 11 1 14 5 10 2 7 2 4 16 2 15 5 4 9 3 15 2 7 5 11 1 15